language Essence 1.3
letting nnodes be 13
letting nrings be 7
letting capacity be 5
letting demand be {{1, 6},
{1, 9},
{1, 13},
{2, 3},
{3, 7},
{3, 9},
{3, 10},
{4, 5},
{4, 9},
{5, 7},
{5, 8},
{5, 9},
{5, 13},
{6, 7},
{6, 12},
{7, 8},
{7, 9},
{7, 11},
{7, 13},
{8, 9},
{8, 13},
{9, 10},
{9, 12},
{10, 12}}
